Results/Experiment 1 Results/Existing Benchmark/RES_40/i-40-100-11.txt
solutions: 2 nodes: 4  modelTime: 116  solveTime: 17  totalTime: 136  modelSize: 7389  readTime: 3 matchingSize: 20
