Results/Experiment 2 Results/Existing Benchmark/i-40-100-11.lp
clingo version 5.4.0
Reading from tempSRTISolver.lp ...
Solving...
Answer: 1
matched(26,2) matched(22,3) matched(27,4) matched(36,5) matched(25,6) matched(19,7) matched(33,8) matched(34,9) matched(37,10) matched(35,11) matched(1,12) matched(32,13) matched(40,14) matched(24,15) matched(21,16) matched(38,17) matched(31,18) matched(7,19) matched(23,20) matched(16,21) matched(3,22) matched(20,23) matched(15,24) matched(6,25) matched(2,26) matched(4,27) matched(29,28) matched(28,29) matched(39,30) matched(18,31) matched(13,32) matched(8,33) matched(9,34) matched(11,35) matched(5,36) matched(10,37) matched(17,38) matched(30,39) matched(14,40) matched(12,1)
Optimization: 277
Answer: 2
matched(26,2) matched(22,3) matched(16,4) matched(36,5) matched(25,6) matched(19,7) matched(21,8) matched(34,9) matched(37,10) matched(35,11) matched(1,12) matched(32,13) matched(40,14) matched(24,15) matched(4,16) matched(38,17) matched(31,18) matched(7,19) matched(23,20) matched(8,21) matched(3,22) matched(20,23) matched(15,24) matched(6,25) matched(2,26) matched(33,27) matched(29,28) matched(28,29) matched(39,30) matched(18,31) matched(13,32) matched(27,33) matched(9,34) matched(11,35) matched(5,36) matched(10,37) matched(17,38) matched(30,39) matched(14,40) matched(12,1)
Optimization: 274
OPTIMUM FOUND

Models       : 2
  Optimum    : yes
Optimization : 274
Calls        : 1
Time         : 1.157s (Solving: 0.06s 1st Model: 0.01s Unsat: 0.02s)
CPU Time     : 1.154s
